(declare-fun Constructed_Argument_t () String)
(declare-fun CreateAsClass () Bool)
(declare-fun Constructed_Argument_elements_routes_0_t () String)
(declare-fun Constructed_Argument_elements_routes_0 () Real)
(declare-fun Constructed_Argument_elements_mode_1_t () String)
(declare-fun Constructed_Argument_elements_base_2_t () String)
(assert (= Constructed_Argument_t "object"))
(assert (not CreateAsClass))
(assert (= Constructed_Argument_elements_routes_0_t "number"))
(assert (= Constructed_Argument_elements_routes_0 0.0))
(assert (not (= Constructed_Argument_elements_mode_1_t "string")))
(assert (not (= Constructed_Argument_elements_mode_1_t "number")))
(assert (not (= Constructed_Argument_elements_mode_1_t "boolean")))
(assert (not (= Constructed_Argument_elements_mode_1_t "object")))
(assert (not (= Constructed_Argument_elements_mode_1_t "array_number")))
(assert (not (= Constructed_Argument_elements_mode_1_t "array_string")))
(assert (not (= Constructed_Argument_elements_mode_1_t "array_bool")))
(assert (not (= Constructed_Argument_elements_mode_1_t "null")))
(assert (not (= Constructed_Argument_elements_base_2_t "string")))
(assert (not (= Constructed_Argument_elements_base_2_t "number")))
(assert (not (= Constructed_Argument_elements_base_2_t "boolean")))
(assert (not (= Constructed_Argument_elements_base_2_t "object")))
(assert (not (= Constructed_Argument_elements_base_2_t "array_number")))
(assert (not (= Constructed_Argument_elements_base_2_t "array_string")))
(assert (= Constructed_Argument_elements_base_2_t "array_bool"))
(check-sat)
